20
53
40
22
29
33
34
105
35
30
39
36
42
29
46
30
58
149
36
39
64
25
25
19
30
73
16
18
22
28
110
26
36
23
37
37
47
64
28
31
22
56
42
18
82
170
47
42
70
38
37
21
31
61
28
40
176
36
27
55
30
25
55
66
47
39
104
24
51
28
58
44
21
62
49
43
37
20
36
44
45
46
35
52
79
74
42
25
27
39
17
40
65
26
30
20
51
46
100
